\ Mixed Integer Linear Programming
\ Generated lp file for problem: relaxedmip

Minimize
Obj:  300 x10 + 135 x12 + 110 x14 + 10 x16 + 10 x18 + 10 x2 
      + 10 x20 + 10 x22 + 10 x24 + 10 x26 + 10 x28 
      + 10 x30 + 10 x32 + 10 x4 + 10 x6 + 120 x8 
      + 6 x33 + 15 x34 - 6 x36 + 9 x37 + 8 x38 
      - x39 - 9 x40 - 9 x42 - 15 x43 - 15 x45 
      
\ 
Subject To
e1:   - x26 + x32 - x6 <= 0
e2:   - x24 - x28 + x30 - x4 <= 0
e3:   - x32 + x6 <= 0
e4:   - x30 + x4 <= 0
e5:   x28 - x30 <= 0
e6:   x26 - x32 <= 0
e7:   x24 - x30 <= 0
e8:   - 0.98x36 - x45 <= 0
e9:   - 0.02x36 - x43 <= 0
e10:  - 0.98x35 - 0.978326189264x39 - x42 <= 0
e11:  - 0.02x35 - 0.021673810736x39 - x40 <= 0
e12:  - 0.02x36 - x43 <= 0
e13:  0.005x36 + 0.985x43 - 0.015x45 <= 0
e14:  - 0.02x35 - 0.021673810736x39 - x40 <= 0
e15:  - 0.005x35 - 0.00332618926401x39 + 0.975x40 - 0.025x42 <= 0
e16:  x36 + x43 + x45 >= 0
e17:  x35 + x39 + x40 + x42 >= 0
e18:  - 200x32 + x36 + x43 + x45 <= 0
e19:  - 150x30 + x35 + x39 + x40 + x42 <= 0
e20:  x2 - x4 - x6 <= 0
e21:  - x16 - x18 + x2 - x20 - x22 <= 0
e22:  - x2 + x6 <= 0
e23:  - x2 + x4 <= 0
e24:  - x2 + x22 <= 0
e25:  - x2 + x20 <= 0
e26:  x18 - x2 <= 0
e27:  x16 - x2 <= 0
e28:  x43 + x45 >= 0
e29:  x40 + x42 >= 0
e30:  - 200x6 + x43 + x45 <= 0
e31:  - 150x4 + x40 + x42 <= 0
e32:  - x38 + bar_var4 + bar_var8 = 0
e33:  - x37 + bar_var3 + bar_var7 = 0
e34:  - x34 + bar_var2 + bar_var6 = 0
e35:  - x33 + bar_var1 + bar_var5 = 0
e36:  x41 + x44 = 1
e37:  x45 - 0.97bar_var5 - 0.99bar_var6 - 0.98bar_var7 - 0.978326189264bar_var8 = 0
e38:  x43 - 0.03bar_var5 - 0.01bar_var6 - 0.02bar_var7 - 0.021673810736bar_var8 = 0
e39:  x42 - 0.97bar_var1 - 0.99bar_var2 - 0.98bar_var3 - 0.978326189264bar_var4 = 0
e40:  x40 - 0.03bar_var1 - 0.01bar_var2 - 0.02bar_var3 - 0.021673810736bar_var4 = 0
e41:  x14 - x22 - x28 <= 0
e42:  x12 - x20 - x24 - x26 <= 0
e43:  x10 - x18 <= 0
e44:  - x16 + x8 <= 0
e45:  - x14 + x28 <= 0
e46:  - x12 + x26 <= 0
e47:  - x12 + x24 <= 0
e48:  - x14 + x22 <= 0
e49:  - x12 + x20 <= 0
e50:  - x10 + x18 <= 0
e51:  x16 - x8 <= 0
e52:  x39 >= 0
e53:  x36 >= 0
e54:  x35 >= 0
e55:  - 150x28 + x39 <= 0
e56:  - 200x26 + x36 <= 0
e57:  - 150x24 + x35 <= 0
e58:  x38 >= 0
e59:  x37 >= 0
e60:  x34 >= 0
e61:  x33 >= 0
e62:  - 293.846851193x22 + x38 <= 0
e63:  - 305.345488449x20 + x37 <= 0
e64:  - 350x18 + x34 <= 0
e65:  - 256.162017897x16 + x33 <= 0
e66:  x38 + x39 >= 0
e67:  x35 + x36 + x37 >= 0
e68:  x34 >= 0
e69:  x33 >= 0
e70:  - 443.846851193x14 + x38 + x39 <= 0
e71:  - 655.345488449x12 + x35 + x36 + x37 <= 0
e72:  - 350x10 + x34 <= 0
e73:  - 256.162017897x8 + x33 <= 0
e74:  - x32 + x31 = 0
e75:  - x30 + x29 = 0
e76:  - x28 + x27 = 0
e77:  - x26 + x25 = 0
e78:  - x24 + x23 = 0
e79:  - x22 + x21 = 0
e80:  - x20 + x19 = 0
e81:  - x18 + x17 = 0
e82:  - x16 + x15 = 0
e83:  - x14 + x13 = 0
e84:  - x12 + x11 = 0
e85:  - x10 + x9 = 0
e86:  - x8 + x7 = 0
e87:  - x6 + x5 = 0
e88:  - x4 + x3 = 0
e89:  - x2 + x1 = 0
e90:  ONE_VAR_CONST__ = 1
e91:  bar_var6 - 202.02020202x10 <= 0
e92:  bar_var7 - 152.284263959x12 <= 0
e93:  bar_var4 - 153.323095759x14 <= 0
e94:  bar_var1 - 154.639175258x16 <= 0
e95:  bar_var6 - 202.02020202x18 <= 0
e96:  bar_var7 - 152.284263959x20 <= 0
e97:  bar_var4 - 153.323095759x22 <= 0
e98:  bar_var1 - 154.639175258x8 <= 0
e99:  x38 + 293.846851193x44 - bar_var8 <= 293.846851193
e100: - x38 + bar_var8 <= 0
e101: - 293.846851193x44 + bar_var8 <= 0
e102: - x37 + bar_var7 <= 0
e103: - x34 + bar_var6 <= 0
e104: - x33 + bar_var5 <= 0
e105: x38 + 293.846851193x41 - bar_var4 <= 293.846851193
e106: - x38 + bar_var4 <= 0
e107: - 293.846851193x41 + bar_var4 <= 0
e108: - x37 + bar_var3 <= 0
e109: - x34 + bar_var2 <= 0
e110: - x33 + bar_var1 <= 0
e111: x34 + 350x41 - bar_var2 <= 350
e112: - 350x44 + bar_var6 <= 0
Bounds
0 <= x10 <= 1
0 <= x12 <= 1
0 <= x14 <= 1
0 <= x16 <= 1
0 <= x18 <= 1
0 <= x2 <= 1
0 <= x20 <= 1
0 <= x22 <= 1
0 <= x24 <= 1
0 <= x26 <= 1
0 <= x28 <= 1
0 <= x30 <= 1
0 <= x32 <= 1
0 <= x4 <= 1
0 <= x6 <= 1
0 <= x8 <= 1
1 <= ONE_VAR_CONST__ <= 1
0 <= x33 <= 256.162017897
0 <= x34 <= 350
0 <= x35 <= 150
0 <= x36 <= 200
0 <= x37 <= 305.345488449
0 <= x38 <= 293.846851193
0 <= x39 <= 150
0 <= x40 <= 5.12710604062
0 <= x41 <= 1
0 <= x42 <= 150
0 <= x43 <= 3.04568527919
0 <= x44 <= 1
0 <= x45 <= 200
0 <= x1 <= 1
0 <= x11 <= 1
0 <= x13 <= 1
0 <= x15 <= 1
0 <= x17 <= 1
0 <= x19 <= 1
0 <= x21 <= 1
0 <= x23 <= 1
0 <= x25 <= 1
0 <= x27 <= 1
0 <= x29 <= 1
0 <= x3 <= 1
0 <= x31 <= 1
0 <= x5 <= 1
0 <= x7 <= 1
0 <= x9 <= 1
0 <= bar_var1 <= 154.639175258
0 <= bar_var2 <= 151.515151515
0 <= bar_var3 <= 153.06122449
0 <= bar_var4 <= 153.323095759
0 <= bar_var5 <= 101.52284264
0 <= bar_var6 <= 202.02020202
0 <= bar_var7 <= 152.284263959
0 <= bar_var8 <= 140.523755434
Integers
x10 x12 x14 x16 x18 x2 
x20 x22 x24 x26 x28 
x30 x32 x4 x6 x8

End
\ bar_var8 = x38 * x44
\ bar_var7 = x37 * x44
\ bar_var6 = x34 * x44
\ bar_var5 = x33 * x44
\ bar_var4 = x38 * x41
\ bar_var3 = x37 * x41
\ bar_var2 = x34 * x41
\ bar_var1 = x33 * x41
